SCIP version 5.0.0 [precision: 8 byte] [memory: block] [mode: optimized] [LP solver: NONE] [GitHash: 3bbd232]
Copyright (C) 2002-2017 Konrad-Zuse-Zentrum fuer Informationstechnik Berlin (ZIB)

External codes: 
  Readline 6.3         GNU library for command line editing (gnu.org/s/readline)
  CppAD 20160000.1     Algorithmic Differentiation of C++ algorithms developed by B. Bell (www.coin-or.org/CppAD)
  ZLIB 1.2.8           General purpose compression library by J. Gailly and M. Adler (zlib.net)
  GMP 6.1.0            GNU Multiple Precision Arithmetic Library developed by T. Granlund (gmplib.org)

user parameter file <scip.set> not found - using default parameters

read problem <../../Split_data/output/madelon_train/5/1_sample_madelon_train.logreg>
============

File name	:	../../Split_data/output/madelon_train/5/1_sample_madelon_train.logreg
Problem name 	:	1_sample_madelon_train
Number of data	:	1600
Number of var	:	500
The given data has linear independence

[dim=1] time: 2.23745
[dim=2] time: 4.23799
[dim=3] time: 6.63498
[dim=4] time: 9.3233
[dim=5] time: 12.1235
[dim=6] time: 15.0258
[dim=7] time: 18.1045
[dim=8] time: 21.3158
[dim=9] time: 24.565
[dim=10] time: 27.8969
[dim=11] time: 31.3159
[dim=12] time: 34.3382
[dim=13] time: 37.4903
[dim=14] time: 40.3139
[dim=15] time: 43.246
[dim=16] time: 46.3341
[dim=17] time: 49.358
[dim=18] time: 52.8181
[dim=19] time: 56.2585
[dim=20] time: 59.8825
[dim=21] time: 63.7123
[dim=22] time: 67.595
[dim=23] time: 71.6541
[dim=24] time: 75.0221
[dim=25] time: 78.7491
[dim=26] time: 82.7199
[dim=27] time: 86.867
[dim=28] time: 90.6472
[dim=29] time: 94.2053
[dim=30] time: 97.5185
[dim=31] time: 101.709
[dim=32] time: 105.546
[dim=33] time: 110.072
[dim=34] time: 114.818
[dim=35] time: 118.763
[dim=36] time: 123.325
[dim=37] time: 128.105
[dim=38] time: 132.77
[dim=39] time: 137.89
[dim=40] time: 142.883
[dim=41] time: 147.718
[dim=42] time: 152.445
[dim=43] time: 157.956
[dim=44] time: 163.286
[dim=45] time: 168.853
[dim=46] time: 174.432
[dim=47] time: 179.855
[dim=48] time: 185.418
[dim=49] time: 190.947
[dim=50] time: 196.825
[dim=51] time: 202.313
[dim=52] time: 207.785
[dim=53] time: 213.293
[dim=54] time: 219.11
[dim=55] time: 224.991
[dim=56] time: 230.748
[dim=57] time: 236.802
[dim=58] time: 242.932
[dim=59] time: 249.078
[dim=60] time: 253.907
[dim=61] time: 259.873
[dim=62] time: 266.048
[dim=63] time: 270.786
[dim=64] time: 276.746
[dim=65] time: 283.132
[dim=66] time: 289.632
[dim=67] time: 296.333
[dim=68] time: 303.215
[dim=69] time: 309.972
[dim=70] time: 316.839
[dim=71] time: 324.206
[dim=72] time: 330.875
[dim=73] time: 337.441
[dim=74] time: 343.921
[dim=75] time: 350.837
[dim=76] time: 357.542
[dim=77] time: 364.456
[dim=78] time: 371.254
[dim=79] time: 378.602
[dim=80] time: 385.821
[dim=81] time: 393.402
[dim=82] time: 400.672
[dim=83] time: 407.915
[dim=84] time: 415.111
[dim=85] time: 422.543
[dim=86] time: 429.84
[dim=87] time: 437.811
[dim=88] time: 445.549
[dim=89] time: 453.454
[dim=90] Time of forward = 461.29sec.
AIC: 1999.78
k: 89

[dim=500] time: 533.28
[dim=499] time: 704.558
[dim=498] time: 894.385
[dim=497] time: 983.089
[dim=496] time: 1166.5
[dim=495] time: 1311.19
[dim=494] time: 1487.41
[dim=493] time: 1609.2
[dim=492] time: 1720.71
[dim=491] time: 1904.29
[dim=490] time: 1989.12
[dim=489] time: 2119.73
Time of backward = 2119.73sec.
AIC: 2527.83
k: 489
